Route 1: 82 65 59 14 47 45 61 69 98 88 2 3 5 7 79 73 78 12 53 52 90 57 10 60 46 55 4 1 37 25
Route 2: 42 39 28 29 33 64 19 23 21 76 18 86 99 87 9 81 34 32 26 35 43 54 17 77 24 58
Route 3: 63 31 72 16 15 11 44 40 38 41 8 6 75 97 20 56 66 13 74 89 80 48
Route 4: 92 36 27 71 94 62 95 85 67 50 30 84 51 22 83 49 91 68 70 93 96 100
Vehicles: 4
Distance: 2508.29
